NAME: test1880
TYPE: TSP
DIMENSION: 11
EDGE_WEIGHT_TYPE: EUC_2D
NODE_COORD_SECTION
1 13.590632632110522 53.40500086363574
2 43.08938294465262 6.768765910940433
3 73.23179981355264 10.545507583861447
4 34.98637227484658 67.44196226083619
5 77.68306053636817 52.87892693716785
6 65.87037705229358 42.65564968400008
7 35.525458509009326 59.37227404570534
8 3.047707392581711 68.9629752416572
9 95.42359072653086 24.436899812469626
10 67.07905646660058 8.157169504277862
11 50.16016486463535 37.59320845543118
EOF
